#! SCF CC-PVTZ geometry optimzation, with Z-matrix input

nucenergy =   9.3537237781                                                                     #TEST
refenergy = -76.057769702                                                                    #TEST

molecule h2o {
 O
 H 1 1.0
 H 1 1.0 2 104.5
}

set {
  basis cc-pvtz
  e_convergence 10
  d_convergence 10
  scf_type pk
  geom_maxiter 1
}

import Psi4Opt
Psi4Opt.calcName = 'hf'
thisenergy = Psi4Opt.Psi4Opt()

compare_values(nucenergy, h2o.nuclear_repulsion_energy(), 3, "Nuclear repulsion energy")    #TEST
compare_values(refenergy, thisenergy, 6, "Reference energy")                                #TEST

