#! SCF STO-3G geometry optimzation, with Z-matrix input

# These values are from a tightly converged QChem run
nucenergy = 8.9064890670                                                                     #TEST
refenergy = -74.965901192                                                                    #TEST

molecule h2o {
     O
     H 1 1.0
     H 1 1.0 2 104.5
}

set {
  diis false
  basis sto-3g
  e_convergence 10
  d_convergence 10
  scf_type pk
}

import Psi4Opt
Psi4Opt.calcName = 'hf'
thisenergy = Psi4Opt.Psi4Opt()

compare_values(nucenergy, h2o.nuclear_repulsion_energy(), 3, "Nuclear repulsion energy")    #TEST
compare_values(refenergy, thisenergy, 6, "Reference energy")                                #TEST

