#! Various constrained energy minimizations of HOOH with cc-pvdz RHF.
#! Cartesian-coordinate constrained optimizations of HOOH in Cartesians.
#! 1. Cartesian optimization.

#HOOH_E_fixed_H_xyz = -150.7866490998188      #TEST
#HOOH_E_fixed_O_xyz = -150.7866389583059      #TEST
#HOOH_E             = -150.7866739753094      #TEST
HOOH_E = -150.7866742

set {
  basis cc-pvdz
  opt_coordinates cartesian
}

# Freeze H xyz in HOOH.
molecule {
  H  0.90  0.80  0.5
  O  0.00  0.70  0.0
  O  0.00 -0.70  0.0
  H -0.90 -0.80  0.5
  no_com
  no_reorient
}

set optking intrafrag_step_limit 0.1
set optking g_convergence gau_tight

import Psi4Opt
Psi4Opt.calcName = 'hf'
thisenergy = Psi4Opt.Psi4Opt()
compare_values(HOOH_E, thisenergy, 7, "Cart. Coord. RHF opt of HOOH, energy")  #TEST

quit()

freeze_list = """
  1 xyz
  4 xyz
"""
set optking frozen_cartesian $freeze_list
compare_values(HOOH_E, thisenergy, 6, "Cart. Coord. RHF opt of HOOH with H's xyz frozen, energy")  #TEST


# Freeze O xyz in HOOH.
molecule {
  H  0.90  0.80  0.5
  O  0.00  0.70  0.0
  O  0.00 -0.70  0.0
  H -0.90 -0.80  0.5
  no_com
  no_reorient
}

freeze_list = """
  2 xyz
  3 xyz
"""

set optking frozen_cartesian $freeze_list
thisenergy = optimize('scf')
compare_values(HOOH_E_fixed_O_xyz, thisenergy, 6, "Cart. Coord. RHF opt of HOOH with O's xyz frozen, energy")  #TEST

# Full optimization
molecule {
  H  0.90  0.80  0.5
  O  0.00  0.70  0.0
  O  0.00 -0.70  0.0
  H -0.90 -0.80  0.5
  no_com
  no_reorient
}

freeze_list = ""
set optking frozen_cartesian $freeze_list
thisenergy = optimize('scf')
compare_values(HOOH_E, thisenergy, 6, "Cart. Coord. RHF opt of HOOH, energy")  #TEST


