# SF4 problem case
# Has linear bend, breaks symmetry
# Converges fine in Cartesian
molecule mol {
0 1
 S  0.00000000  -0.00000000  -0.30618267
 F -1.50688420  -0.00000000   0.56381732
 F  0.00000000  -1.74000000  -0.30618267
 F -0.00000000   1.74000000  -0.30618267
 F  1.50688420   0.00000000   0.56381732
}

set scf_type df
set basis 6-31G(d)
set reference rhf
set opt_coordinates cartesian

e, wfn = optimize('scf', return_wfn=True)

