#! Various constrained energy minimizations of HOOH with cc-pvdz RHF.
#! Cartesian-coordinate constrained optimizations of HOOH in Cartesians.
import optking

HOOH_E_fixed_H_xyz = -150.7866490998188
HOOH_E_fixed_O_xyz = -150.7866389583059
HOOH_E             = -150.786674252464

set {
  basis cc-pvdz
  opt_coordinates cartesian
}

# Freeze H xyz in HOOH.
molecule {
  H  0.90  0.80  0.5
  O  0.00  0.70  0.0
  O  0.00 -0.70  0.0
  H -0.90 -0.80  0.5
  no_com
  no_reorient
}

freeze_list = """
  1 xyz 
  4 xyz 
"""

set optking frozen_cartesian $freeze_list
result = optking.optimize_psi4('scf')
thisenergy = result['energies'][-1]
compare_values(HOOH_E_fixed_H_xyz, thisenergy, 6, "Cart. Coord. RHF opt of HOOH with H's xyz frozen, energy")

# Freeze O xyz in HOOH.
molecule {
  H  0.90  0.80  0.5
  O  0.00  0.70  0.0
  O  0.00 -0.70  0.0
  H -0.90 -0.80  0.5
  no_com
  no_reorient
}

freeze_list = """
  2 xyz 
  3 xyz 
"""

set optking frozen_cartesian $freeze_list
result = optking.optimize_psi4('scf')
thisenergy = result['energies'][-1]
compare_values(HOOH_E_fixed_O_xyz, thisenergy, 6, "Cart. Coord. RHF opt of HOOH with O's xyz frozen, energy")

# Full optimization
molecule {
  H  0.90  0.80  0.5
  O  0.00  0.70  0.0
  O  0.00 -0.70  0.0
  H -0.90 -0.80  0.5
  no_com
  no_reorient
}

set g_convergence gau_tight

freeze_list = ""
set optking frozen_cartesian $freeze_list
result = optking.optimize_psi4('scf')
thisenergy = result['energies'][-1]
compare_values(HOOH_E, thisenergy, 6, "Cart. Coord. RHF opt of HOOH, energy")

