#! Various constrained energy minimizations of HOOH with cc-pvdz RHF
#! Internal-coordinate constraints in internal-coordinate optimizations.

OH_frozen_stre_rhf       = -150.781130357 #TEST
OOH_frozen_bend_rhf      = -150.786372411 #TEST
HOOH_frozen_dihedral_rhf = -150.786766848 #TEST

set {
  diis false
  basis cc-PVDZ
  g_convergence gau_verytight
  scf_type pk 
}

# Constrained minimization with O-H bonds frozen.
molecule {
  H
  O 1 0.90
  O 2 1.40 1 100.0 
  H 3 0.90 2 100.0 1 115.0
}

set optking {
  print = 3
  frozen_distance = ("
    1  2
    3  4
  ")
}
#import Psi4Opt
#Psi4Opt.calcName = 'hf'
#thisenergy = Psi4Opt.Psi4Opt()
thisenergy = optimize('hf')
compare_values(OH_frozen_stre_rhf, thisenergy, 7, "Int. Coord. RHF opt of HOOH with O-H frozen, energy")  #TEST

# Constrained minimization with O-O-H angles frozen.
molecule {
  H
  O 1 0.90
  O 2 1.40 1 100.0
  H 3 0.90 2 100.0 1 115.0
}

set optking {
  frozen_distance = ""  # here, it's been previous used, so must be blanked
  frozen_bend = ("
    1 2 3
    2 3 4
  ")
}
#reload(Psi4Opt)
#Psi4Opt.calcName = 'hf'
thisenergy = optimize('hf')
compare_values(OOH_frozen_bend_rhf, thisenergy, 7, "Int. Coord. RHF opt of HOOH with O-O-H frozen, energy") #TEST

# Constrained minimization with H-O-O-H dihedral frozen.
molecule {
  H
  O 1 0.90
  O 2 1.40 1 100.0
  H 3 0.90 2 100.0 1 115.0
}

set optking {
  frozen_distance = ""   # here, it's been previous used, so must be blanked
  frozen_bend =     ""
  frozen_dihedral = ("
    1 2 3 4
  ")
}
#reload(Psi4Opt)
#Psi4Opt.calcName = 'hf'
thisenergy = optimize('hf')
#thisenergy = Psi4Opt.Psi4Opt()
compare_values(HOOH_frozen_dihedral_rhf, thisenergy, 7, "Int. Coord. RHF opt of HOOH with H-O-O-H frozen, energy") #TEST

