#! SCF CC-PVTZ geometry optimzation, with Z-matrix input

finalEnergy = -76.05776970 #TEST

molecule h2o {
 O
 H 1 1.0
 H 1 1.0 2 104.5
}

set {
  basis cc-pvtz
  e_convergence 10
  d_convergence 10
  scf_type pk
}

set optking step_type rfo
import Psi4Opt
Psi4Opt.calcName = 'hf'
E = Psi4Opt.Psi4Opt()
compare_values(finalEnergy, E, 6, "RFO Step Final Energy")                                #TEST

molecule h2o {
 O
 H 1 1.0
 H 1 1.0 2 104.5
}

set optking step_type NR
reload(Psi4Opt)
Psi4Opt.calcName = 'hf'
E = Psi4Opt.Psi4Opt()
compare_values(finalEnergy, E, 6, "NR Step Final Energy")                                #TEST

molecule h2o {
 O
 H 1 1.0
 H 1 1.0 2 104.5
}

set optking step_type SD
reload(Psi4Opt)
Psi4Opt.calcName = 'hf'
E = Psi4Opt.Psi4Opt()
compare_values(finalEnergy, E, 6, "SD Step Final Energy")                                #TEST


