#! SCF STO-3G geometry optimzation, with Z-matrix input, by finite-differences
import optking

REF_energy = -74.965901192

molecule h2o {
     O
     H 1 1.0
     H 1 1.0 2 104.5
}

set {
  diis false
  basis sto-3g
  e_convergence 10
  d_convergence 10
  points 3
  scf_type pk
}

# This test requires a change to ~/psi4/psi4/driver/schema_wrapper.py
# to detect "dertype" as a keyword and allow it to be an integer.
result = optking.optimize_psi4('scf', dertype=0)
this_energy = result['energies'][-1]
print( result['trajectory'][-1]['stdout'] )

compare_values(REF_energy, this_energy, 6, "Reference energy")

