#! All-electron MP2 6-31G** geometry optimization of water
import optking

REF_nucenergy =   9.1622581908184
REF_mp2 = -76.2224486598878

molecule h2o {
  O
  H 1 1.0
  H 1 1.0 2 106.0
}

set {
  basis 6-31G**
  reference rhf
  d_convergence 9
  e_convergence 9
  mp2_type conv
}

result = optking.optimize_psi4('mp2')
this_mp2       = result['energies'][-1]
this_nucenergy = result['trajectory'][-1]['properties']['nuclear_repulsion_energy']

compare_values(REF_nucenergy, this_nucenergy, 3, "Nuclear repulsion energy")
compare_values(REF_mp2, this_mp2, 6, "CONV MP2 energy")

