#! SCF STO-3G geometry optimzation, with Z-matrix input

# These values are from a tightly converged QChem run
nucenergy = 8.9064890670                                                                     #TEST
refenergy = -74.965901192                                                                    #TEST

molecule h2o {
     O
     H 1 1.0
     H 1 1.0 2 104.5
}

psi4options = {
  'diis': 'false',
  'basis': 'sto-3g',
  'e_convergence': 10,
  'd_convergence': 10,
  'scf_type': 'pk'
}

import optking
json_output = optking.Psi4Opt('hf', psi4options)
thisenergy = json_output['properties']['return_energy']
nucenergy = json_output['properties']['nuclear_repulsion_energy']

compare_values(nucenergy, nucenergy, 3, "Nuclear repulsion energy")    #TEST
compare_values(refenergy, thisenergy, 6, "Reference energy")                                #TEST

