#! SCS-OMP3 cc-pVDZ geometry optimization for the H2O molecule.
import optking

REF_nuc      =  9.11871568396669
REF_scf      = -76.02615852683365
REF_scsomp3  = -76.22962586987757

molecule h2o { 
0 1
o
h 1 0.958
h 1 0.958 2 104.4776 
}

set {
    basis cc-pvdz
}

result = optking.optimize_psi4('scs-omp3')
this_nuc      = result['trajectory'][-1]['properties']['nuclear_repulsion_energy']
this_scf      = result['trajectory'][-1]['properties']['scf_total_energy']
this_energy   = result['energies'][-1]

compare_values(REF_nuc, this_nuc, 5, "Nuclear Repulsion Energy (a.u.)"); 
compare_values(REF_scf, this_scf, 6, "SCF Energy (a.u.)");
compare_values(REF_scsomp3, this_energy, 6, "SCS-OMP3 Total Energy (a.u.)");

