#! UHF-CCSD(T)/cc-pVDZ $^{3}B@@1$ CH2 geometry optimization via analytic gradients
import optking

molecule ch2 {
  0 3
  C
  H 1 1.1
  H 1 1.1 2 109.0
}

set {
  reference uhf
  basis cc-pvdz
  max_disp_g_convergence  1e-6
  max_force_g_convergence 1.0e-6
  max_energy_g_convergence    7
  e_convergence 10
  r_convergence 10
}

result = optking.optimize_psi4('CCSD(T)')

REF_scf     = -38.92655208442658
REF_ccsd_t  =  -0.11716018769631
REF_total   = -39.04371227103925

this_scf    = result['trajectory'][-1]['properties']['scf_total_energy']
this_ccsd_t = result['trajectory'][-1]['properties']['ccsd_prt_pr_correlation_energy']
this_total  = result['trajectory'][-1]['properties']['ccsd_prt_pr_total_energy']
this_return = result['trajectory'][-1]['properties']['return_energy']

compare_values(REF_scf,    this_scf,    6, "SCF energy")
compare_values(REF_ccsd_t, this_ccsd_t, 6, "CCSD(T) contribution")
compare_values(REF_total,  this_total,  6, "Total CCSD(T) energy")
compare_values(REF_total,  this_return, 6, "Total CCSD(T) return energy")

