#! SCF cc-pVTZ geometry optimzation, with Z-matrix input
import optking

REF_energy = -76.057769702

molecule h2o {
  O
  H 1 1.0
  H 1 1.0 2 104.5
}

set {
  basis cc-pvtz
  e_convergence 10
  d_convergence 10
  scf_type pk
}

result = optking.optimize_psi4('scf')
thisenergy = result['energies'][-1]

compare_values(REF_energy, thisenergy, 6, "Reference energy")
