#! SCF DZ allene geometry optimization, with Cartesian input, first in c2v symmetry,
#! then in Cs symmetry from a starting point with a non-linear central bond angle.
import optking

REF_energy = -115.8302823663 

# starting point is D2d/c2v
molecule allene {
 H  0.0  -0.92   -1.8
 H  0.0   0.92   -1.8
 C  0.0   0.00   -1.3
 C  0.0   0.00    0.0
 C  0.0   0.00    1.3
 H  0.92  0.00    1.8
 H -0.92  0.00    1.8
}

set {
  basis DZ
  e_convergence 10
  d_convergence 10
  scf_type pk
}

result = optking.optimize_psi4('scf')
thisenergy = result['energies'][-1]
compare_values(REF_energy, thisenergy, 6, "Reference energy")

